70 716
1 16 47 37 58 50 51 56 65 64 11 67 48 54 62 39 25 45 61 40 46 27 9 43 41 6 42 18 4 66 22 63 59 38 69 31 13 29 70 35 57 15 24 19 2 7 32 3 8 26 55 49 28 14 20 30 44 68 17 34 21 12 33 60 52 10 5 53 23 36 
